words_train/words_183_SAT.qaiger
aag 86 16 0 1 70
32
16
8
22
20
12
26
30
6
4
18
10
28
2
14
24
173
34 20 19
36 34 22
38 36 24
40 37 25
42 41 39
44 35 23
46 45 37
48 21 18
50 49 35
52 51 47
54 52 43
56 38 26
58 39 27
60 59 57
62 61 54
64 56 28
66 57 29
68 67 65
70 69 62
72 68 63
74 73 71
76 74 12
78 75 13
80 79 77
82 65 31
84 64 30
86 85 83
88 70 15
90 71 14
92 91 89
94 93 86
96 92 87
98 97 95
100 99 80
102 53 42
104 103 55
106 105 8
108 104 9
110 109 107
112 19 2
114 18 3
116 115 113
118 51 5
120 50 4
122 121 119
124 122 116
126 50 46
128 127 53
130 128 6
132 129 7
134 133 131
136 134 124
138 136 111
140 60 55
142 141 63
144 143 11
146 142 10
148 147 145
150 148 138
152 33 16
154 32 17
156 155 153
158 82 70
160 84 71
162 161 159
164 162 157
166 163 156
168 167 165
170 168 150
172 170 100
i0 1 x[7]
i1 2 y[7]
i2 2 y[3]
i3 1 x[2]
i4 1 x[1]
i5 2 y[5]
i6 1 x[4]
i7 1 x[6]
i8 2 y[2]
i9 2 y[1]
i10 1 x[0]
i11 2 y[4]
i12 1 x[5]
i13 2 y[0]
i14 2 y[6]
i15 1 x[3]
o0 bool[0]
c
simplified
  !=
    2 y
    subtract
      invert
        1
      xor
        invert
          1
        1 x
