words_train/words_183_SAT.qaiger.qdimacs
p cnf 86 211
a 9 10 11 12 13 14 15 16 0
e 1 2 3 4 5 6 7 8 17 18 19 20 21 22 23 24 25 26 27 28 29 30 31 32 33 34 35 36 37 38 39 40 41 42 43 44 45 46 47 48 49 50 51 52 53 54 55 56 57 58 59 60 61 62 63 64 65 66 67 68 69 70 71 72 73 74 75 76 77 78 79 80 81 82 83 84 85 86 0
-10 9 17 0
10 -17 0
-9 -17 0
-17 -11 18 0
17 -18 0
11 -18 0
-18 -12 19 0
18 -19 0
12 -19 0
18 12 20 0
-18 -20 0
-12 -20 0
20 19 21 0
-20 -21 0
-19 -21 0
17 11 22 0
-17 -22 0
-11 -22 0
22 18 23 0
-22 -23 0
-18 -23 0
10 -9 24 0
-10 -24 0
9 -24 0
24 17 25 0
-24 -25 0
-17 -25 0
25 23 26 0
-25 -26 0
-23 -26 0
-26 21 27 0
26 -27 0
-21 -27 0
-19 -13 28 0
19 -28 0
13 -28 0
19 13 29 0
-19 -29 0
-13 -29 0
29 28 30 0
-29 -30 0
-28 -30 0
30 -27 31 0
-30 -31 0
27 -31 0
-28 -14 32 0
28 -32 0
14 -32 0
28 14 33 0
-28 -33 0
-14 -33 0
33 32 34 0
-33 -34 0
-32 -34 0
34 -31 35 0
-34 -35 0
31 -35 0
-34 31 36 0
34 -36 0
-31 -36 0
36 35 37 0
-36 -37 0
-35 -37 0
-37 -6 38 0
37 -38 0
6 -38 0
37 6 39 0
-37 -39 0
-6 -39 0
39 38 40 0
-39 -40 0
-38 -40 0
32 15 41 0
-32 -41 0
-15 -41 0
-32 -15 42 0
32 -42 0
15 -42 0
42 41 43 0
-42 -43 0
-41 -43 0
-35 7 44 0
35 -44 0
-7 -44 0
35 -7 45 0
-35 -45 0
7 -45 0
45 44 46 0
-45 -46 0
-44 -46 0
46 -43 47 0
-46 -47 0
43 -47 0
-46 43 48 0
46 -48 0
-43 -48 0
48 47 49 0
-48 -49 0
-47 -49 0
49 -40 50 0
-49 -50 0
40 -50 0
26 -21 51 0
-26 -51 0
21 -51 0
51 27 52 0
-51 -52 0
-27 -52 0
52 -4 53 0
-52 -53 0
4 -53 0
-52 4 54 0
52 -54 0
-4 -54 0
54 53 55 0
-54 -55 0
-53 -55 0
9 -1 56 0
-9 -56 0
1 -56 0
-9 1 57 0
9 -57 0
-1 -57 0
57 56 58 0
-57 -58 0
-56 -58 0
25 2 59 0
-25 -59 0
-2 -59 0
-25 -2 60 0
25 -60 0
2 -60 0
60 59 61 0
-60 -61 0
-59 -61 0
-61 -58 62 0
61 -62 0
58 -62 0
-25 -23 63 0
25 -63 0
23 -63 0
63 26 64 0
-63 -64 0
-26 -64 0
-64 -3 65 0
64 -65 0
3 -65 0
64 3 66 0
-64 -66 0
-3 -66 0
66 65 67 0
-66 -67 0
-65 -67 0
-67 -62 68 0
67 -68 0
62 -68 0
-68 55 69 0
68 -69 0
-55 -69 0
-30 27 70 0
30 -70 0
-27 -70 0
70 31 71 0
-70 -71 0
-31 -71 0
71 5 72 0
-71 -72 0
-5 -72 0
-71 -5 73 0
71 -73 0
5 -73 0
73 72 74 0
-73 -74 0
-72 -74 0
-74 -69 75 0
74 -75 0
69 -75 0
16 -8 76 0
-16 -76 0
8 -76 0
-16 8 77 0
16 -77 0
-8 -77 0
77 76 78 0
-77 -78 0
-76 -78 0
-41 -35 79 0
41 -79 0
35 -79 0
-42 35 80 0
42 -80 0
-35 -80 0
80 79 81 0
-80 -81 0
-79 -81 0
-81 78 82 0
81 -82 0
-78 -82 0
81 -78 83 0
-81 -83 0
78 -83 0
83 82 84 0
-83 -84 0
-82 -84 0
-84 -75 85 0
84 -85 0
75 -85 0
-85 -50 86 0
85 -86 0
50 -86 0
-86 0
